79 79
11 21
51 27
58 28
16 2
36 7
21 1
63 8
39 13
71 10
8 36
41 37
19 18
49 39
46 16
65 10
79 30
23 19
75 12
35 34
53 20
12 33
20 5
10 29
32 40
40 38
26 29
76 32
73 23
3 4
27 38
5 36
2 22
78 14
13 5
37 25
43 22
15 31
55 24
47 3
61 35
48 14
38 31
74 26
59 8
45 13
14 11
28 23
52 12
33 4
56 32
9 15
64 26
34 11
77 30
29 19
57 3
66 17
6 2
42 28
18 24
70 7
4 18
72 9
44 21
67 27
68 20
62 33
60 35
24 6
17 1
25 6
7 15
1 37
31 9
69 25
22 16
30 39
50 17
54 34
